p cnf 386 460
3 -15 6 21 22 0
3 -15 6 21 -22 0
3 -15 6 -21 23 0
3 -15 6 -21 -23 0
9 14 2 24 25 0
9 14 2 24 -25 0
9 14 2 -24 26 0
9 14 2 -24 -26 0
9 4 18 27 28 0
9 4 18 27 -28 0
9 4 18 -27 29 0
9 4 18 -27 -29 0
-12 11 -13 30 31 0
-12 11 -13 30 -31 0
-12 11 -13 -30 32 0
-12 11 -13 -30 -32 0
1 -5 -17 33 34 0
1 -5 -17 33 -34 0
1 -5 -17 -33 35 0
1 -5 -17 -33 -35 0
19 -16 7 36 37 0
19 -16 7 36 -37 0
19 -16 7 -36 38 0
19 -16 7 -36 -38 0
-14 6 -15 39 40 0
-14 6 -15 39 -40 0
-14 6 -15 -39 41 0
-14 6 -15 -39 -41 0
-20 -16 -3 42 43 0
-20 -16 -3 42 -43 0
-20 -16 -3 -42 44 0
-20 -16 -3 -42 -44 0
-6 -8 2 45 46 0
-6 -8 2 45 -46 0
-6 -8 2 -45 47 0
-6 -8 2 -45 -47 0
-17 20 8 48 49 0
-17 20 8 48 -49 0
-17 20 8 -48 50 0
-17 20 8 -48 -50 0
-6 4 -17 51 52 0
-6 4 -17 51 -52 0
-6 4 -17 -51 53 0
-6 4 -17 -51 -53 0
13 -1 20 54 55 0
13 -1 20 54 -55 0
13 -1 20 -54 56 0
13 -1 20 -54 -56 0
7 -16 -3 57 58 0
7 -16 -3 57 -58 0
7 -16 -3 -57 59 0
7 -16 -3 -57 -59 0
1 -18 7 60 61 0
1 -18 7 60 -61 0
1 -18 7 -60 62 0
1 -18 7 -60 -62 0
-5 11 -6 63 64 0
-5 11 -6 63 -64 0
-5 11 -6 -63 65 0
-5 11 -6 -63 -65 0
14 9 15 66 67 0
14 9 15 66 -67 0
14 9 15 -66 68 0
14 9 15 -66 -68 0
5 14 -4 69 70 0
5 14 -4 69 -70 0
5 14 -4 -69 71 0
5 14 -4 -69 -71 0
-12 -8 15 72 73 0
-12 -8 15 72 -73 0
-12 -8 15 -72 74 0
-12 -8 15 -72 -74 0
-13 -18 -4 75 76 0
-13 -18 -4 75 -76 0
-13 -18 -4 -75 77 0
-13 -18 -4 -75 -77 0
-7 -3 -9 78 79 0
-7 -3 -9 78 -79 0
-7 -3 -9 -78 80 0
-7 -3 -9 -78 -80 0
-4 -8 1 81 82 0
-4 -8 1 81 -82 0
-4 -8 1 -81 83 0
-4 -8 1 -81 -83 0
1 2 -14 84 85 0
1 2 -14 84 -85 0
1 2 -14 -84 86 0
1 2 -14 -84 -86 0
-4 -17 -2 87 88 0
-4 -17 -2 87 -88 0
-4 -17 -2 -87 89 0
-4 -17 -2 -87 -89 0
5 4 -16 90 91 0
5 4 -16 90 -91 0
5 4 -16 -90 92 0
5 4 -16 -90 -92 0
-7 10 -18 93 94 0
-7 10 -18 93 -94 0
-7 10 -18 -93 95 0
-7 10 -18 -93 -95 0
9 5 -20 96 97 0
9 5 -20 96 -97 0
9 5 -20 -96 98 0
9 5 -20 -96 -98 0
10 4 20 99 100 0
10 4 20 99 -100 0
10 4 20 -99 101 0
10 4 20 -99 -101 0
-18 12 -2 102 103 0
-18 12 -2 102 -103 0
-18 12 -2 -102 104 0
-18 12 -2 -102 -104 0
-19 15 -17 105 106 0
-19 15 -17 105 -106 0
-19 15 -17 -105 107 0
-19 15 -17 -105 -107 0
9 11 -10 108 109 0
9 11 -10 108 -109 0
9 11 -10 -108 110 0
9 11 -10 -108 -110 0
-18 15 -17 111 112 0
-18 15 -17 111 -112 0
-18 15 -17 -111 113 0
-18 15 -17 -111 -113 0
-15 -13 -3 114 115 0
-15 -13 -3 114 -115 0
-15 -13 -3 -114 116 0
-15 -13 -3 -114 -116 0
20 -14 -2 117 118 0
20 -14 -2 117 -118 0
20 -14 -2 -117 119 0
20 -14 -2 -117 -119 0
14 13 6 120 121 0
14 13 6 120 -121 0
14 13 6 -120 122 0
14 13 6 -120 -122 0
-10 16 20 123 124 0
-10 16 20 123 -124 0
-10 16 20 -123 125 0
-10 16 20 -123 -125 0
-10 20 7 126 127 0
-10 20 7 126 -127 0
-10 20 7 -126 128 0
-10 20 7 -126 -128 0
13 -16 -9 129 130 0
13 -16 -9 129 -130 0
13 -16 -9 -129 131 0
13 -16 -9 -129 -131 0
6 -5 -1 132 133 0
6 -5 -1 132 -133 0
6 -5 -1 -132 134 0
6 -5 -1 -132 -134 0
20 -11 18 135 136 0
20 -11 18 135 -136 0
20 -11 18 -135 137 0
20 -11 18 -135 -137 0
-19 -14 -6 138 139 0
-19 -14 -6 138 -139 0
-19 -14 -6 -138 140 0
-19 -14 -6 -138 -140 0
-7 -15 -11 141 142 0
-7 -15 -11 141 -142 0
-7 -15 -11 -141 143 0
-7 -15 -11 -141 -143 0
19 -5 -9 144 145 0
19 -5 -9 144 -145 0
19 -5 -9 -144 146 0
19 -5 -9 -144 -146 0
5 17 4 147 148 0
5 17 4 147 -148 0
5 17 4 -147 149 0
5 17 4 -147 -149 0
-17 -4 -13 150 151 0
-17 -4 -13 150 -151 0
-17 -4 -13 -150 152 0
-17 -4 -13 -150 -152 0
20 11 -4 153 154 0
20 11 -4 153 -154 0
20 11 -4 -153 155 0
20 11 -4 -153 -155 0
16 15 14 156 157 0
16 15 14 156 -157 0
16 15 14 -156 158 0
16 15 14 -156 -158 0
19 -6 11 159 160 0
19 -6 11 159 -160 0
19 -6 11 -159 161 0
19 -6 11 -159 -161 0
6 17 19 162 163 0
6 17 19 162 -163 0
6 17 19 -162 164 0
6 17 19 -162 -164 0
12 -18 -5 165 166 0
12 -18 -5 165 -166 0
12 -18 -5 -165 167 0
12 -18 -5 -165 -167 0
-15 -11 -8 168 169 0
-15 -11 -8 168 -169 0
-15 -11 -8 -168 170 0
-15 -11 -8 -168 -170 0
16 -11 -10 171 172 0
16 -11 -10 171 -172 0
16 -11 -10 -171 173 0
16 -11 -10 -171 -173 0
15 16 -2 174 175 0
15 16 -2 174 -175 0
15 16 -2 -174 176 0
15 16 -2 -174 -176 0
-7 9 5 177 178 0
-7 9 5 177 -178 0
-7 9 5 -177 179 0
-7 9 5 -177 -179 0
-10 -7 11 180 181 0
-10 -7 11 180 -181 0
-10 -7 11 -180 182 0
-10 -7 11 -180 -182 0
8 -15 6 183 184 0
8 -15 6 183 -184 0
8 -15 6 -183 185 0
8 -15 6 -183 -185 0
14 -20 11 186 187 0
14 -20 11 186 -187 0
14 -20 11 -186 188 0
14 -20 11 -186 -188 0
6 -18 -10 189 190 0
6 -18 -10 189 -190 0
6 -18 -10 -189 191 0
6 -18 -10 -189 -191 0
-17 19 1 192 193 0
-17 19 1 192 -193 0
-17 19 1 -192 194 0
-17 19 1 -192 -194 0
-5 -16 17 195 196 0
-5 -16 17 195 -196 0
-5 -16 17 -195 197 0
-5 -16 17 -195 -197 0
-6 1 19 198 199 0
-6 1 19 198 -199 0
-6 1 19 -198 200 0
-6 1 19 -198 -200 0
13 17 9 201 202 0
13 17 9 201 -202 0
13 17 9 -201 203 0
13 17 9 -201 -203 0
-7 13 -3 204 205 0
-7 13 -3 204 -205 0
-7 13 -3 -204 206 0
-7 13 -3 -204 -206 0
-13 -17 -12 207 208 0
-13 -17 -12 207 -208 0
-13 -17 -12 -207 209 0
-13 -17 -12 -207 -209 0
19 -16 -14 210 211 0
19 -16 -14 210 -211 0
19 -16 -14 -210 212 0
19 -16 -14 -210 -212 0
-9 18 11 213 214 0
-9 18 11 213 -214 0
-9 18 11 -213 215 0
-9 18 11 -213 -215 0
-10 16 -5 216 217 0
-10 16 -5 216 -217 0
-10 16 -5 -216 218 0
-10 16 -5 -216 -218 0
9 -3 -8 219 220 0
9 -3 -8 219 -220 0
9 -3 -8 -219 221 0
9 -3 -8 -219 -221 0
6 -12 -17 222 223 0
6 -12 -17 222 -223 0
6 -12 -17 -222 224 0
6 -12 -17 -222 -224 0
1 6 -9 225 226 0
1 6 -9 225 -226 0
1 6 -9 -225 227 0
1 6 -9 -225 -227 0
3 -15 -10 228 229 0
3 -15 -10 228 -229 0
3 -15 -10 -228 230 0
3 -15 -10 -228 -230 0
5 -2 16 231 232 0
5 -2 16 231 -232 0
5 -2 16 -231 233 0
5 -2 16 -231 -233 0
8 -20 -12 234 235 0
8 -20 -12 234 -235 0
8 -20 -12 -234 236 0
8 -20 -12 -234 -236 0
-8 12 14 237 238 0
-8 12 14 237 -238 0
-8 12 14 -237 239 0
-8 12 14 -237 -239 0
13 -8 -11 240 241 0
13 -8 -11 240 -241 0
13 -8 -11 -240 242 0
13 -8 -11 -240 -242 0
19 15 9 243 244 0
19 15 9 243 -244 0
19 15 9 -243 245 0
19 15 9 -243 -245 0
-7 -9 2 246 247 0
-7 -9 2 246 -247 0
-7 -9 2 -246 248 0
-7 -9 2 -246 -248 0
1 -19 -17 249 250 0
1 -19 -17 249 -250 0
1 -19 -17 -249 251 0
1 -19 -17 -249 -251 0
10 -9 -8 252 253 0
10 -9 -8 252 -253 0
10 -9 -8 -252 254 0
10 -9 -8 -252 -254 0
-15 18 -3 255 256 0
-15 18 -3 255 -256 0
-15 18 -3 -255 257 0
-15 18 -3 -255 -257 0
14 5 -6 258 259 0
14 5 -6 258 -259 0
14 5 -6 -258 260 0
14 5 -6 -258 -260 0
8 17 -18 261 262 0
8 17 -18 261 -262 0
8 17 -18 -261 263 0
8 17 -18 -261 -263 0
-14 -11 -15 264 265 0
-14 -11 -15 264 -265 0
-14 -11 -15 -264 266 0
-14 -11 -15 -264 -266 0
-5 2 -1 267 268 0
-5 2 -1 267 -268 0
-5 2 -1 -267 269 0
-5 2 -1 -267 -269 0
4 -18 -9 270 271 0
4 -18 -9 270 -271 0
4 -18 -9 -270 272 0
4 -18 -9 -270 -272 0
3 7 -9 273 274 0
3 7 -9 273 -274 0
3 7 -9 -273 275 0
3 7 -9 -273 -275 0
15 -7 -17 276 277 0
15 -7 -17 276 -277 0
15 -7 -17 -276 278 0
15 -7 -17 -276 -278 0
-17 -7 -8 279 280 0
-17 -7 -8 279 -280 0
-17 -7 -8 -279 281 0
-17 -7 -8 -279 -281 0
1 -20 3 282 283 0
1 -20 3 282 -283 0
1 -20 3 -282 284 0
1 -20 3 -282 -284 0
-2 -19 -13 285 286 0
-2 -19 -13 285 -286 0
-2 -19 -13 -285 287 0
-2 -19 -13 -285 -287 0
1 19 4 288 289 0
1 19 4 288 -289 0
1 19 4 -288 290 0
1 19 4 -288 -290 0
2 -15 -19 291 292 0
2 -15 -19 291 -292 0
2 -15 -19 -291 293 0
2 -15 -19 -291 -293 0
294 295 297 301 309 0
294 295 297 301 -309 0
294 295 297 -301 310 0
294 295 297 -301 -310 0
294 295 -297 302 311 0
294 295 -297 302 -311 0
294 295 -297 -302 312 0
294 295 -297 -302 -312 0
294 -295 298 303 313 0
294 -295 298 303 -313 0
294 -295 298 -303 314 0
294 -295 298 -303 -314 0
294 -295 -298 304 315 0
294 -295 -298 304 -315 0
294 -295 -298 -304 316 0
294 -295 -298 -304 -316 0
-294 296 299 305 317 0
-294 296 299 305 -317 0
-294 296 299 -305 318 0
-294 296 299 -305 -318 0
-294 296 -299 306 319 0
-294 296 -299 306 -319 0
-294 296 -299 -306 320 0
-294 296 -299 -306 -320 0
-294 -296 300 307 321 0
-294 -296 300 307 -321 0
-294 -296 300 -307 322 0
-294 -296 300 -307 -322 0
-294 -296 -300 308 323 0
-294 -296 -300 308 -323 0
-294 -296 -300 -308 324 0
-294 -296 -300 -308 -324 0
325 326 328 332 340 0
325 326 328 332 -340 0
325 326 328 -332 341 0
325 326 328 -332 -341 0
325 326 -328 333 342 0
325 326 -328 333 -342 0
325 326 -328 -333 343 0
325 326 -328 -333 -343 0
325 -326 329 334 344 0
325 -326 329 334 -344 0
325 -326 329 -334 345 0
325 -326 329 -334 -345 0
325 -326 -329 335 346 0
325 -326 -329 335 -346 0
325 -326 -329 -335 347 0
325 -326 -329 -335 -347 0
-325 327 330 336 348 0
-325 327 330 336 -348 0
-325 327 330 -336 349 0
-325 327 330 -336 -349 0
-325 327 -330 337 350 0
-325 327 -330 337 -350 0
-325 327 -330 -337 351 0
-325 327 -330 -337 -351 0
-325 -327 331 338 352 0
-325 -327 331 338 -352 0
-325 -327 331 -338 353 0
-325 -327 331 -338 -353 0
-325 -327 -331 339 354 0
-325 -327 -331 339 -354 0
-325 -327 -331 -339 355 0
-325 -327 -331 -339 -355 0
356 357 359 363 371 0
356 357 359 363 -371 0
356 357 359 -363 372 0
356 357 359 -363 -372 0
356 357 -359 364 373 0
356 357 -359 364 -373 0
356 357 -359 -364 374 0
356 357 -359 -364 -374 0
356 -357 360 365 375 0
356 -357 360 365 -375 0
356 -357 360 -365 376 0
356 -357 360 -365 -376 0
356 -357 -360 366 377 0
356 -357 -360 366 -377 0
356 -357 -360 -366 378 0
356 -357 -360 -366 -378 0
-356 358 361 367 379 0
-356 358 361 367 -379 0
-356 358 361 -367 380 0
-356 358 361 -367 -380 0
-356 358 -361 368 381 0
-356 358 -361 368 -381 0
-356 358 -361 -368 382 0
-356 358 -361 -368 -382 0
-356 -358 362 369 383 0
-356 -358 362 369 -383 0
-356 -358 362 -369 384 0
-356 -358 362 -369 -384 0
-356 -358 -362 370 385 0
-356 -358 -362 370 -385 0
-356 -358 -362 -370 386 0
-356 -358 -362 -370 -386 0

